LAMMPS Description

108  atoms
 72  bonds
 36  angles

 2  atom types
 1  bond types
 1  angle types


0.0000000000 252.6300000000 xlo xhi
0.0000000000 252.6300000000 ylo yhi
0.0000000000 252.6300000000 zlo zhi

Masses

  1 12.0107
  2 15.9994

Bond Coeffs

 1    2.196    0.45106005 -0.67297933 0.5857145

Angle Coeffs

  1    0.0861  180.000000

Atoms

1 1 1 0.651200 -72.4976796531 -407.8147998851 843.0723469841
2 1 2 -0.325600 -71.2832411371 -409.4017219536 844.0219583546
3 1 2 -0.325600 -73.5796226088 -406.1358999195 842.0057335114
4 2 1 0.651200 687.0870577014 383.4963759268 -454.1395144667
5 2 2 -0.325600 686.0646106730 383.9950574011 -452.2456964871
6 2 2 -0.325600 688.0603422848 383.0670080291 -456.0763767559
7 3 1 0.651200 -426.1957947642 -348.6069232692 200.9652247693
8 3 2 -0.325600 -426.2562550672 -346.7598843582 199.7713922901
9 3 2 -0.325600 -426.4455793669 -350.5467006559 202.1231975597
10 4 1 0.651200 -298.7361904963 -263.8688078695 839.9389456038
11 4 2 -0.325600 -300.0888943163 -264.3479023689 841.6093464990
12 4 2 -0.325600 -297.6074682944 -263.3930549356 838.1714350215
13 5 1 0.651200 366.3080262148 531.8793888240 -198.4124742095
14 5 2 -0.325600 366.3676886138 529.7311300917 -198.7032028717
15 5 2 -0.325600 366.0793922086 534.0116063008 -198.3711023110
16 6 1 0.651200 -248.7975928160 538.6525697455 331.2514255779
17 6 2 -0.325600 -248.2101202134 540.1528286080 329.8104081432
18 6 2 -0.325600 -249.5253963610 537.1067972763 332.5749248156
19 7 1 0.651200 122.5782330638 -657.1446695908 691.0979252818
20 7 2 -0.325600 122.4953329448 -657.4835098386 693.2797026482
21 7 2 -0.325600 122.7504513651 -656.7306795033 688.9001248854
22 8 1 0.651200 -534.8630015901 361.6399036141 -569.2524573360
23 8 2 -0.325600 -533.1866081383 361.1980605178 -570.7114493520
24 8 2 -0.325600 -536.5212581659 362.0704751992 -567.8648767335
25 9 1 0.651200 114.1815951889 57.9619062565 581.0389546635
26 9 2 -0.325600 115.6461462073 59.6237661106 581.0992615838
27 9 2 -0.325600 113.0181434405 56.0799523116 580.9485060901
28 10 1 0.651200 -0.1793664688 428.5954473596 -1019.0848564592
29 10 2 -0.325600 -1.0337628926 430.4966252168 -1019.9409175254
30 10 2 -0.325600 0.5619382332 426.7184099181 -1018.2232444397
31 11 1 0.651200 383.6648236749 1.4173855555 141.2466383619
32 11 2 -0.325600 382.6971936799 3.0381695747 142.4375565604
33 11 2 -0.325600 384.3933910989 0.0237614658 139.7198694112
34 12 1 0.651200 442.7821420080 465.6488246182 -390.4268343887
35 12 2 -0.325600 443.0822981233 463.8071876658 -389.2733112981
36 12 2 -0.325600 442.5726667134 467.5280468531 -391.5516374421
37 13 1 0.651200 -1.7035723786 957.6220840296 944.3380300263
38 13 2 -0.325600 -0.3003401922 957.9210515406 942.6659084821
39 13 2 -0.325600 -3.3157256301 957.4250794011 945.8413114014
40 14 1 0.651200 20.1941680951 116.9642410201 -195.1902082966
41 14 2 -0.325600 20.5831244401 114.8824885843 -194.8030088857
42 14 2 -0.325600 19.7163278982 119.0658637322 -195.6619334991
43 15 1 0.651200 -320.5239589800 613.3063351774 205.2686236391
44 15 2 -0.325600 -319.4422512190 615.2176826517 205.4245239868
45 15 2 -0.325600 -321.4267766675 611.2717488273 205.0806167483
46 16 1 0.651200 -74.3215178141 143.4594006910 849.9123936948
47 16 2 -0.325600 -75.7498970882 145.0177180252 850.4845870019
48 16 2 -0.325600 -72.9430061107 141.8214270154 849.6119023589
49 17 1 0.651200 556.9376513931 972.6811674698 546.7302018858
50 17 2 -0.325600 557.3809509143 974.4919554719 545.6074370106
51 17 2 -0.325600 556.5562109283 970.7905749656 547.7530013480
52 18 1 0.651200 327.5480994022 509.4578171134 -208.5068931079
53 18 2 -0.325600 325.8301060294 509.0999259366 -207.1555795713
54 18 2 -0.325600 329.2733596816 509.7930762585 -209.8429846655
55 19 1 0.651200 -220.4962494744 -112.2749427404 -258.5337048458
56 19 2 -0.325600 -222.3902195227 -113.2673601723 -259.1450159806
57 19 2 -0.325600 -218.7089953857 -111.2942222014 -257.8958321030
58 20 1 0.651200 -272.7218984887 -478.9762816018 -338.0742024612
59 20 2 -0.325600 -271.5293299454 -477.5230076374 -336.9313284858
60 20 2 -0.325600 -273.7951786146 -480.5946553245 -339.1353443943
61 21 1 0.651200 268.3574347754 -310.0980243720 1223.7714279888
62 21 2 -0.325600 269.2692812112 -310.1778508830 1221.7778648230
63 21 2 -0.325600 267.5510764277 -310.1563074126 1225.9025267440
64 22 1 0.651200 290.0699286859 -1.4816540455 -54.7686096410
65 22 2 -0.325600 292.1958093699 -1.9625932041 -54.3604149173
66 22 2 -0.325600 287.9983480961 -0.9154077788 -55.0829297119
67 23 1 0.651200 -271.2695032506 2.0152771611 941.5234823757
68 23 2 -0.325600 -273.1350152757 3.0891365805 941.0460267378
69 23 2 -0.325600 -269.3953980240 0.9427859500 942.0012218629
70 24 1 0.651200 -271.1442652564 497.1516871295 -71.0394403542
71 24 2 -0.325600 -273.2106051816 496.8624031441 -70.4229150450
72 24 2 -0.325600 -269.1807845838 497.3309995429 -72.0167188294
73 25 1 0.651200 155.0424224987 1011.3446626064 368.6616955912
74 25 2 -0.325600 156.0229569460 1010.2969353043 370.2820562467
75 25 2 -0.325600 153.9478998547 1012.3859683720 367.0940407430
76 26 1 0.651200 -101.5728368109 -6.1637782079 -285.0691068856
77 26 2 -0.325600 -100.8247819182 -4.0648876191 -284.7486041753
78 26 2 -0.325600 -102.1951567500 -8.2418014065 -285.2961147310
79 27 1 0.651200 335.1106651439 -51.7247713589 -119.2384792855
80 27 2 -0.325600 336.5463192504 -50.8661142790 -120.6129864232
81 27 2 -0.325600 333.4590050743 -52.2674355972 -117.9554283050
82 28 1 0.651200 679.0564182386 568.7818483965 -910.3148301983
83 28 2 -0.325600 679.0741741917 567.7630854924 -908.3208385784
84 28 2 -0.325600 678.9867774741 569.7438234133 -912.2966699584
85 29 1 0.651200 435.0429785212 -792.0091541075 119.0267286419
86 29 2 -0.325600 435.7769179703 -790.0329283379 118.3851333113
87 29 2 -0.325600 434.4629579108 -794.0240469838 119.5899162260
88 30 1 0.651200 449.5479658968 -494.0953902396 647.2538715957
89 30 2 -0.325600 448.9339474636 -494.8507290313 645.2381032733
90 30 2 -0.325600 450.1921265815 -493.3630979636 649.1655267399
91 31 1 0.651200 -280.2836430471 237.0818717206 -155.3254447832
92 31 2 -0.325600 -281.0121313600 238.3448326240 -153.6739850353
93 31 2 -0.325600 -279.6289738012 235.7819072155 -156.9620474694
94 32 1 0.651200 217.5018006265 122.8845197277 -371.7848456264
95 32 2 -0.325600 219.6599385677 123.1270103179 -371.8914632745
96 32 2 -0.325600 215.3557709151 122.5395611321 -371.5774652340
97 33 1 0.651200 940.3388398638 215.1104687057 -19.4091314410
98 33 2 -0.325600 941.5379640117 213.5887625443 -20.5002939389
99 33 2 -0.325600 939.0603122950 216.6353611640 -18.4383362539
100 34 1 0.651200 406.7021820088 -531.9696354939 88.5416590649
101 34 2 -0.325600 405.7419869927 -532.2034205437 90.5383095824
102 34 2 -0.325600 407.7995940059 -531.6656873067 86.6499131830
103 35 1 0.651200 66.0812197845 844.6686625079 242.0581618851
104 35 2 -0.325600 68.1709280714 845.2308109325 241.9401693886
105 35 2 -0.325600 64.0151337038 843.9124583538 242.1736303437
106 36 1 0.651200 337.4338709077 -179.3533152159 219.1538207692
107 36 2 -0.325600 336.5789098872 -179.1637365297 217.1834795859
108 36 2 -0.325600 338.3405946027 -179.6952356997 221.1035710435

Bonds

1 1 1 2
2 1 1 3
3 1 4 5
4 1 4 6
5 1 7 8
6 1 7 9
7 1 10 11
8 1 10 12
9 1 13 14
10 1 13 15
11 1 16 17
12 1 16 18
13 1 19 20
14 1 19 21
15 1 22 23
16 1 22 24
17 1 25 26
18 1 25 27
19 1 28 29
20 1 28 30
21 1 31 32
22 1 31 33
23 1 34 35
24 1 34 36
25 1 37 38
26 1 37 39
27 1 40 41
28 1 40 42
29 1 43 44
30 1 43 45
31 1 46 47
32 1 46 48
33 1 49 50
34 1 49 51
35 1 52 53
36 1 52 54
37 1 55 56
38 1 55 57
39 1 58 59
40 1 58 60
41 1 61 62
42 1 61 63
43 1 64 65
44 1 64 66
45 1 67 68
46 1 67 69
47 1 70 71
48 1 70 72
49 1 73 74
50 1 73 75
51 1 76 77
52 1 76 78
53 1 79 80
54 1 79 81
55 1 82 83
56 1 82 84
57 1 85 86
58 1 85 87
59 1 88 89
60 1 88 90
61 1 91 92
62 1 91 93
63 1 94 95
64 1 94 96
65 1 97 98
66 1 97 99
67 1 100 101
68 1 100 102
69 1 103 104
70 1 103 105
71 1 106 107
72 1 106 108

Angles

1 1 2 1 3
2 1 5 4 6
3 1 8 7 9
4 1 11 10 12
5 1 14 13 15
6 1 17 16 18
7 1 20 19 21
8 1 23 22 24
9 1 26 25 27
10 1 29 28 30
11 1 32 31 33
12 1 35 34 36
13 1 38 37 39
14 1 41 40 42
15 1 44 43 45
16 1 47 46 48
17 1 50 49 51
18 1 53 52 54
19 1 56 55 57
20 1 59 58 60
21 1 62 61 63
22 1 65 64 66
23 1 68 67 69
24 1 71 70 72
25 1 74 73 75
26 1 77 76 78
27 1 80 79 81
28 1 83 82 84
29 1 86 85 87
30 1 89 88 90
31 1 92 91 93
32 1 95 94 96
33 1 98 97 99
34 1 101 100 102
35 1 104 103 105
36 1 107 106 108


